c colouring generated by benchmark framework
p edge 197 3925
v 1 0
v 2 1
v 3 5
v 4 15
v 5 16
v 6 17
v 7 18
v 8 19
v 9 20
v 10 21
v 11 14
v 12 13
v 13 10
v 14 8
v 15 22
v 16 12
v 17 0
v 18 42
v 19 41
v 20 40
v 21 39
v 22 38
v 23 37
v 24 36
v 25 35
v 26 1
v 27 43
v 28 44
v 29 45
v 30 46
v 31 47
v 32 48
v 33 31
v 34 32
v 35 32
v 36 32
v 37 32
v 38 8
v 39 2
v 40 3
v 41 4
v 42 6
v 43 7
v 44 9
v 45 11
v 46 12
v 47 2
v 48 3
v 49 4
v 50 6
v 51 7
v 52 9
v 53 11
v 54 23
v 55 24
v 56 14
v 57 15
v 58 0
v 59 13
v 60 16
v 61 0
v 62 10
v 63 8
v 64 17
v 65 25
v 66 0
v 67 26
v 68 27
v 69 0
v 70 0
v 71 27
v 72 0
v 73 31
v 74 28
v 75 29
v 76 0
v 77 5
v 78 0
v 79 0
v 80 30
v 81 0
v 82 0
v 83 5
v 84 0
v 85 18
v 86 0
v 87 19
v 88 20
v 89 0
v 90 21
v 91 21
v 92 0
v 93 25
v 94 0
v 95 0
v 96 26
v 97 0
v 98 0
v 99 22
v 100 0
v 101 0
v 102 27
v 103 0
v 104 23
v 105 0
v 106 0
v 107 24
v 108 28
v 109 30
v 110 0
v 111 25
v 112 26
v 113 0
v 114 27
v 115 0
v 116 0
v 117 28
v 118 29
v 119 0
v 120 30
v 121 31
v 122 0
v 123 0
v 124 0
v 125 31
v 126 31
v 127 31
v 128 31
v 129 31
v 130 31
v 131 31
v 132 0
v 133 0
v 134 0
v 135 31
v 136 31
v 137 31
v 138 32
v 139 31
v 140 0
v 141 0
v 142 32
v 143 0
v 144 33
v 145 31
v 146 34
v 147 32
v 148 34
v 149 33
v 150 32
v 151 31
v 152 34
v 153 32
v 154 31
v 155 0
v 156 0
v 157 33
v 158 0
v 159 0
v 160 31
v 161 32
v 162 33
v 163 32
v 164 31
v 165 32
v 166 31
v 167 0
v 168 0
v 169 33
v 170 0
v 171 0
v 172 0
v 173 32
v 174 32
v 175 0
v 176 32
v 177 32
v 178 32
v 179 0
v 180 0
v 181 33
v 182 0
v 183 0
v 184 8
v 185 0
v 186 0
v 187 5
v 188 0
v 189 10
v 190 0
v 191 25
v 192 25
v 193 0
v 194 0
v 195 17
v 196 0
v 197 5
